1 1 2 0
1 -3 4 0
1 5 -6 0
1 -5 7 0
1 5 -8 0
1 -5 4 0
1 2 9 0
1 -4 10 0
1 -4 -5 0
1 8 11 0
1 -8 12 0
1 -13 14 0
1 -13 -15 0
1 -13 12 0
1 16 -2 0
1 16 17 0
1 -18 -2 0
1 19 -4 0
1 20 -21 0
1 -20 4 0
1 -22 -23 0
1 -22 -24 0
1 -7 -25 0
1 7 -18 0
1 -26 -18 0
1 26 27 0
1 -6 -27 0
1 -6 -28 0
1 -6 15 0
1 -6 -19 0
1 23 -29 0
1 -23 30 0
1 23 22 0
1 -31 -29 0
1 -25 -7 0
1 25 31 0
1 25 -21 0
1 32 33 0
1 32 -30 0
1 -30 34 0
1 -21 29 0
1 21 35 0
1 -29 -36 0
1 37 38 0
1 37 -39 0
1 -37 -40 0
1 -41 -3 0
1 -42 43 0
1 -42 -44 0
1 39 -11 0
1 -39 -43 0
1 39 37 0
1 43 11 0
1 -43 -45 0
1 -38 46 0
1 -40 47 0
1 17 -48 0
1 14 49 0
1 -14 -8 0
1 -14 50 0
1 12 51 0
1 -11 -52 0
1 -49 -53 0
1 49 54 0
1 49 -14 0
1 -49 -42 0
1 -49 -15 0
1 50 54 0
1 50 10 0
1 -50 -12 0
1 -50 -55 0
1 52 -44 0
1 -48 -12 0
1 -48 -44 0
1 -15 51 0
1 -15 -8 0
1 -15 -50 0
1 15 13 0
1 -10 6 0
1 -10 13 0
1 -54 49 0
1 54 -9 0
1 56 54 0
1 56 12 0
1 57 56 0
1 57 36 0
1 58 54 0
1 58 59 0
1 -28 -29 0
1 -28 -60 0
1 28 57 0
1 -61 -62 0
1 -61 22 0
1 -36 -63 0
1 9 -62 0
1 9 -2 0
1 9 -64 0
1 -62 28 0
1 62 -9 0
1 -65 -54 0
1 -65 -66 0
1 -65 63 0
1 -63 67 0
1 -63 36 0
1 63 -66 0
1 -68 -62 0
1 68 -29 0
1 34 24 0
1 69 70 0
1 -69 -71 0
1 69 24 0
1 72 73 0
1 -72 35 0
1 24 74 0
1 24 -72 0
1 -75 64 0
1 -76 -73 0
1 -76 -77 0
1 -76 78 0
1 -76 -34 0
1 76 -64 0
1 73 79 0
1 -80 24 0
1 -81 75 0
1 -74 82 0
1 74 24 0
1 82 -70 0
1 83 -80 0
1 83 69 0
1 83 -81 0
1 -83 72 0
1 84 -83 0
1 -35 -70 0
1 35 -69 0
1 35 -81 0
1 -70 82 0
1 60 -51 0
1 -53 -52 0
1 -53 -45 0
1 85 -46 0
1 85 36 0
1 85 47 0
1 86 85 0
1 -86 -47 0
1 86 58 0
1 -87 -39 0
1 87 -86 0
1 -46 38 0
1 -47 -60 0
1 67 -88 0
1 67 -89 0
1 67 -55 0
1 67 -58 0
1 -67 -57 0
1 67 63 0
1 -90 -87 0
1 -90 89 0
1 90 91 0
1 90 -55 0
1 92 -71 0
1 -92 -93 0
1 92 -45 0
1 -92 -72 0
1 -92 -59 0
1 89 86 0
1 55 -90 0
1 -88 67 0
1 -88 85 0
1 -91 71 0
1 91 92 0
1 79 -80 0
1 94 -95 0
1 -94 -77 0
1 -77 -94 0
1 77 -95 0
1 -95 -79 0
1 -95 -77 0
1 95 92 0
1 95 96 0
1 93 -94 0
1 -93 59 0
1 -93 -79 0
1 -93 71 0
1 -93 92 0
1 -59 58 0
1 59 -92 0
